1646118000
1646146800
1646204400
1646233200
1646290800
1646319600
1646377200
1646413200
1646636400
1646665200
1646722800
1646737200
1646809200
1646838000
1646895600
1646924400
1646982000
1647010800
1647327600
1647356400
1647414000
1647442800
1647500400
1647529200
1647586800
1647615600
1647846000
1647874800
1647932400
1647961200
1648018800
1648047600
1648105200
1648134000
1648134000
1648141200
1648191600
1648220400
1648220400
1648227600
1648447200
1648483200
1648533600
1648562400
1648620000
1648648800
1648706400
1648735200
